s td 81 10 90
b 1 1 2 11
b 2 9 10 20
b 3 71 81 82
b 4 80 89 90
b 5 2 3 11 12
b 6 8 9 19 20
b 7 3 4 14 25 36 45 56 65 76 87
b 8 4 14 25 36 45 47 56 65 76 87
b 9 4 14 25 36 47 56 65 67 76 87
b 10 4 14 25 36 47 56 58 67 76 87
b 11 4 14 25 36 47 58 67 76 78 87
b 12 4 14 25 36 47 58 67 69 78 87
b 13 4 14 25 36 47 58 60 69 78 87
b 14 4 14 25 36 47 58 59 60 69
b 15 4 14 25 36 47 48 58 59 60
b 16 4 14 25 36 37 47 48 59 60
b 17 4 14 25 26 36 37 48 59 60
b 18 4 14 15 25 26 37 48 59 60
b 19 4 6 15 26 37 48 59 60
b 20 4 5 6 15
b 21 6 15 17 26 37 48 59 60
b 22 6 17 26 28 37 48 59 60
b 23 6 17 28 37 39 48 59 60
b 24 6 17 28 30 39 48 59 60
b 25 6 17 19 28 30 39
b 26 6 8 17 19 28 30
b 27 6 7 8 17
b 28 8 17 18 19 28
b 29 8 19 20 30
b 30 19 28 29 30 39
b 31 30 39 48 50 59 60
b 32 30 39 40 50
b 33 39 48 49 50 59
b 34 28 37 38 39 48
b 35 17 26 27 28 37
b 36 6 15 16 17 26
b 37 60 69 78 87 89
b 38 60 69 78 79 89
b 39 60 69 70 79 89
b 40 78 87 88 89
b 41 58 67 68 69 78
b 42 67 76 77 78 87
b 43 47 56 57 58 67
b 44 56 65 66 67 76
b 45 36 45 46 47 56
b 46 3 14 25 34 36 45 56 65 76 87
b 47 3 14 23 25 34 45 56 65 76 87
b 48 3 14 23 34 45 54 56 65 76 87
b 49 3 14 23 34 43 45 54 65 76 87
b 50 3 14 23 32 34 43 54 65 76 87
b 51 3 14 23 32 41 43 54 65 76 87
b 52 3 14 21 23 32 41
b 53 3 12 14 21 23 32
b 54 3 11 12 21
b 55 3 12 13 14 23
b 56 12 21 22 23 32
b 57 21 31 32 41
b 58 32 41 43 52 54 65 76 87
b 59 32 41 42 43 52
b 60 41 43 52 54 63 65 76 87
b 61 41 52 54 63 65 74 76 87
b 62 41 52 63 65 74 76 83 87
b 63 41 52 61 63 74 83
b 64 41 51 52 61
b 65 52 61 63 72 74 83
b 66 52 61 62 63 72
b 67 63 72 73 74 83
b 68 61 72 82 83
b 69 65 74 76 83 85 87
b 70 65 74 75 76 85
b 71 74 83 84 85
b 72 76 85 86 87
b 73 54 63 64 65 74
b 74 43 52 53 54 63
b 75 23 32 33 34 43
b 76 34 43 44 45 54
b 77 45 54 55 56 65
b 78 14 23 24 25 34
b 79 25 34 35 36 45
b 80 61 71 72 82
b 81 70 79 80 89
1 5
2 6
3 80
4 81
5 54
6 29
7 8
7 46
8 9
8 45
9 10
9 44
10 11
10 43
11 12
11 42
12 13
12 41
13 14
13 37
14 15
15 16
16 17
17 18
18 19
19 20
19 21
21 22
21 36
22 23
22 35
23 24
23 34
24 25
24 31
25 26
25 30
26 27
26 28
26 29
31 32
31 33
37 38
37 40
38 39
39 81
46 47
46 79
47 48
47 78
48 49
48 77
49 50
49 76
50 51
50 75
51 52
51 58
52 53
52 57
53 54
53 55
53 56
58 59
58 60
60 61
60 74
61 62
61 73
62 63
62 69
63 64
63 65
65 66
65 67
65 68
68 80
69 70
69 71
69 72
